c CNF file corresponding to a (partial) station packing problem.
p cnf 6465 229
1 2 3 4 5 6 7 8 9 10 11 12 13 14 0
-1 -2 0
-1 -3 0
-1 -4 0
-1 -5 0
-1 -6 0
-1 -7 0
-1 -8 0
-1 -9 0
-1 -10 0
-1 -11 0
-1 -12 0
-1 -13 0
-1 -14 0
-2 -3 0
-2 -4 0
-2 -5 0
-2 -6 0
-2 -7 0
-2 -8 0
-2 -9 0
-2 -10 0
-2 -11 0
-2 -12 0
-2 -13 0
-2 -14 0
-3 -4 0
-3 -5 0
-3 -6 0
-3 -7 0
-3 -8 0
-3 -9 0
-3 -10 0
-3 -11 0
-3 -12 0
-3 -13 0
-3 -14 0
-4 -5 0
-4 -6 0
-4 -7 0
-4 -8 0
-4 -9 0
-4 -10 0
-4 -11 0
-4 -12 0
-4 -13 0
-4 -14 0
-5 -6 0
-5 -7 0
-5 -8 0
-5 -9 0
-5 -10 0
-5 -11 0
-5 -12 0
-5 -13 0
-5 -14 0
-6 -7 0
-6 -8 0
-6 -9 0
-6 -10 0
-6 -11 0
-6 -12 0
-6 -13 0
-6 -14 0
-7 -8 0
-7 -9 0
-7 -10 0
-7 -11 0
-7 -12 0
-7 -13 0
-7 -14 0
-8 -9 0
-8 -10 0
-8 -11 0
-8 -12 0
-8 -13 0
-8 -14 0
-9 -10 0
-9 -11 0
-9 -12 0
-9 -13 0
-9 -14 0
-10 -11 0
-10 -12 0
-10 -13 0
-10 -14 0
-11 -12 0
-11 -13 0
-11 -14 0
-12 -13 0
-12 -14 0
-13 -14 0
6449 6450 6451 6452 6453 6454 6455 6456 6457 6458 6459 6460 6461 6462 6463 6464 6465 0
-6449 -6450 0
-6449 -6451 0
-6449 -6452 0
-6449 -6453 0
-6449 -6454 0
-6449 -6455 0
-6449 -6456 0
-6449 -6457 0
-6449 -6458 0
-6449 -6459 0
-6449 -6460 0
-6449 -6461 0
-6449 -6462 0
-6449 -6463 0
-6449 -6464 0
-6449 -6465 0
-6450 -6451 0
-6450 -6452 0
-6450 -6453 0
-6450 -6454 0
-6450 -6455 0
-6450 -6456 0
-6450 -6457 0
-6450 -6458 0
-6450 -6459 0
-6450 -6460 0
-6450 -6461 0
-6450 -6462 0
-6450 -6463 0
-6450 -6464 0
-6450 -6465 0
-6451 -6452 0
-6451 -6453 0
-6451 -6454 0
-6451 -6455 0
-6451 -6456 0
-6451 -6457 0
-6451 -6458 0
-6451 -6459 0
-6451 -6460 0
-6451 -6461 0
-6451 -6462 0
-6451 -6463 0
-6451 -6464 0
-6451 -6465 0
-6452 -6453 0
-6452 -6454 0
-6452 -6455 0
-6452 -6456 0
-6452 -6457 0
-6452 -6458 0
-6452 -6459 0
-6452 -6460 0
-6452 -6461 0
-6452 -6462 0
-6452 -6463 0
-6452 -6464 0
-6452 -6465 0
-6453 -6454 0
-6453 -6455 0
-6453 -6456 0
-6453 -6457 0
-6453 -6458 0
-6453 -6459 0
-6453 -6460 0
-6453 -6461 0
-6453 -6462 0
-6453 -6463 0
-6453 -6464 0
-6453 -6465 0
-6454 -6455 0
-6454 -6456 0
-6454 -6457 0
-6454 -6458 0
-6454 -6459 0
-6454 -6460 0
-6454 -6461 0
-6454 -6462 0
-6454 -6463 0
-6454 -6464 0
-6454 -6465 0
-6455 -6456 0
-6455 -6457 0
-6455 -6458 0
-6455 -6459 0
-6455 -6460 0
-6455 -6461 0
-6455 -6462 0
-6455 -6463 0
-6455 -6464 0
-6455 -6465 0
-6456 -6457 0
-6456 -6458 0
-6456 -6459 0
-6456 -6460 0
-6456 -6461 0
-6456 -6462 0
-6456 -6463 0
-6456 -6464 0
-6456 -6465 0
-6457 -6458 0
-6457 -6459 0
-6457 -6460 0
-6457 -6461 0
-6457 -6462 0
-6457 -6463 0
-6457 -6464 0
-6457 -6465 0
-6458 -6459 0
-6458 -6460 0
-6458 -6461 0
-6458 -6462 0
-6458 -6463 0
-6458 -6464 0
-6458 -6465 0
-6459 -6460 0
-6459 -6461 0
-6459 -6462 0
-6459 -6463 0
-6459 -6464 0
-6459 -6465 0
-6460 -6461 0
-6460 -6462 0
-6460 -6463 0
-6460 -6464 0
-6460 -6465 0
-6461 -6462 0
-6461 -6463 0
-6461 -6464 0
-6461 -6465 0
-6462 -6463 0
-6462 -6464 0
-6462 -6465 0
-6463 -6464 0
-6463 -6465 0
-6464 -6465 0
